mass			1 1.0
mass			2 1.0

pair_style	lj/cut 	2.5
pair_coeff	1 1 	1.0 	1.0  	2.5
pair_coeff	2 2 	0.5 	0.88  	2.2
pair_coeff	1 2 	1.5 	0.8 	2.0
pair_modify shift yes
