shell mkdir results
log results/creation.log

include params.in

units		lj
atom_style	atomic

lattice		fcc ${rho}
region		box block -$L $L -$L $L -$L $L units box

create_box		2 box
variable NA equal $N*0.8
variable NB equal $N*0.2
create_atoms	1 random ${NA} ${seed1} box
create_atoms	2 random ${NB} ${seed2} box

include sys.in

timestep ${timestep}

neighbor	0.3 bin
neigh_modify	every 1 delay 0 check no

minimize ${thresh} ${thresh} ${maxiter} ${maxiter}

velocity	all create ${startT} ${seed3}

thermo ${thermofreq}

fix hotbath all nvt temp ${startT} $T 1.0
run		${preequil}
unfix hotbath

reset_timestep 0
write_restart results/made
